Generated using dynaphopy
1.0
       42.7600670406         0.0000000000         0.0000000000
        0.0000000000        42.7294798475         0.0000000000
        0.0000000000         0.0000000000        42.7378891080
  O  Si   
3456 1728
Cartesian
       22.4590073000         4.1915571900         1.7495426600
       23.2456367000        15.4058034000        27.3417379000
       25.7356353000        14.3904740000        27.1601594000
       27.7334070000        16.1236670000        26.9885966000
       29.3849603000        17.6343989000        25.4468760000
       24.2592098000        17.9865435000        25.9996746000
       21.7972626000        20.6079969000        25.4101417000
       26.9178355000        18.3743520000        25.9358538000
       25.4559209000        19.1275388000        27.9799671000
       25.2768349000        20.3514910000        25.5349914000
       28.6995954000        18.3837683000        27.8575459000
       30.9452324000        19.8068395000        27.8476687000
       22.6851979000        13.3097004000        31.2774676000
       24.5886417000        11.5577114000        31.5517258000
       30.0077956000        13.9409002000        26.2895480000
       25.0583264000        13.8782474000        30.2701070000
       28.5588378000        11.4421434000        31.8922816000
       29.2869339000        13.8296999000        31.2229943000
       30.4515704000        14.2684148000        28.9056546000
       30.8044349000        10.8665835000        30.6504239000
       24.2559287000        16.2193037000        31.0183668000
       22.0520250000        15.3006272000        29.6753459000
       23.5098547000        17.4774605000        28.7768011000
       26.0797587000        16.0808389000        29.1316285000
       26.6490593000        15.4200701000        31.6835315000
       29.2145293000        16.2134631000        30.2211127000
       31.3335900000        16.8443848000        31.6841716000
       22.3023650000        17.8784529000        31.4787658000
       24.6676172000        18.8103727000        30.5697618000
       27.8864477000        14.2965846000        28.8999455000
       23.2021107000        20.0892741000        28.7642472000
       30.2640117000        11.8315707000        27.8458936000
       27.8752835000        11.6955294000        26.8499579000
       21.9722677000        16.2749057000        21.1297917000
       29.0336948000        17.4227018000        20.3671811000
       28.5091803000        14.8301626000        20.1942528000
       30.7234646000        15.9662417000        19.0492836000
       24.5216237000        20.5540938000        19.5101667000
       22.2617092000        20.5757863000        18.2457943000
       27.8311176000        19.6238771000        21.1731341000
       23.1122017000        14.3759415000        22.6325872000
       27.4284501000        13.0622570000        21.9745722000
       26.5981909000        12.6066810000        24.5540986000
       28.5958144000        14.1005448000        24.1004483000
       30.0879305000        11.8872640000        24.6576349000
       30.4235370000        13.1230785000        21.5956631000
       25.3958557000        11.3146618000        26.6105080000
       31.3251719000        10.8553250000        22.5440795000
       24.6047960000        16.1746616000        21.4959119000
       25.1514129000        17.3536088000        23.7163418000
       26.2739217000        15.0125519000        23.2686787000
       26.9194138000        17.2003855000        21.8233228000
       31.1251764000        14.2410240000        23.8834763000
       30.5578207000        15.6916876000        21.6436945000
       22.8821498000        18.7762078000        23.8921228000
       31.4957264000        17.9866586000        23.8666781000
       29.0983306000        18.0648348000        22.8908544000
       29.7804811000        20.0542331000        24.3366516000
       31.9628325000        21.2533620000        24.7412727000
       23.9800528000        14.1026561000        25.1684607000
       23.5135373000        12.8476414000        27.3808475000
       22.8223638000        16.2926284000        24.4468668000
       22.5220740000        21.2547977000        31.0262505000
       27.5374978000        21.2694459000        31.2442335000
       28.8225818000        20.7210375000        29.0622835000
       23.8564268000        12.6154127000        41.2585451000
       21.3605221000        13.3416507000        41.4354722000
       25.7517088000        10.8882863000        41.6372103000
       26.2066775000        13.5595706000        41.7763224000
       29.1907968000        11.2745669000        40.9923517000
       30.5469567000        13.1752202000        42.3432135000
       22.4349425000        17.3582871000        42.1324449000
       21.7661406000        16.9432865000        39.6284286000
       23.2623365000        15.1706787000        40.9218171000
       24.2149333000        17.5834831000        40.2849804000
       26.1905837000        16.0801557000        40.9831416000
       28.4005470000        14.6448446000        41.0877826000
       31.8094953000        14.6357393000        40.4518595000
       30.1629561000        21.1751463000        38.3661234000
       29.7229818000        15.8627766000        39.2060795000
       26.6687670000        18.5970992000        40.3751376000
       28.1986971000        20.6033758000        39.5322000000
       25.8102609000        21.0807658000        40.5325990000
       27.7741101000        20.2330904000        42.0883141000
       23.1515662000        22.8911991000         2.7931666400
       22.3104649000        22.8363245000         0.3403896630
       24.2648508000        24.6786276000         0.1054278020
       27.6888417000        23.4024896000         0.6410295150
       25.9587904000        23.0938280000         2.6096833600
       28.7079918000        23.0849123000         2.9843459800
       31.2920797000        23.1757708000         2.2727521800
       22.7691670000        26.6816983000         2.0973408400
       24.7359199000        27.2319995000         0.3817391160
       30.9108397000        16.8836615000        41.2671520000
       21.9342749000        18.5546554000        37.5293168000
       32.1367156000        16.6536008000        38.8414747000
       27.5791825000        16.1534526000        36.6340903000
       30.1924466000        18.5973297000        29.9984987000
       29.0207358000        18.0069787000        32.1983343000
       21.8502055000        12.2396662000        34.4684074000
       24.8470773000        13.8797583000        32.8591264000
       27.3900283000        13.3063278000        33.0631998000
       29.8665756000        12.8896629000        33.6965846000
       31.7089379000        14.1141074000        35.0877645000
       22.2165374000        16.6591308000        33.7547640000
       24.4979891000        17.8165423000        33.0232043000
       24.3319117000        16.4441952000        35.3092385000
       26.6422692000        15.3784071000        34.3222913000
       28.1449930000        17.5033037000        34.5483615000
       29.2326644000        15.0544643000        34.9716228000
       23.1224309000        18.8019232000        34.9644073000
       22.6347378000        20.9992949000        33.6381958000
       27.5961180000        19.8900080000        33.4760877000
       30.0352131000        19.2472753000        34.3311773000
       31.8317387000        19.9836981000        32.6069393000
       21.5696471000        12.3094258000        37.0132091000
       22.4484580000        13.3354003000        39.1579931000
       23.0635017000        14.1764855000        35.8434960000
       31.9696295000        12.5119595000        38.0775449000
       29.9456708000        10.9151854000        38.4160570000
       29.8806563000        12.8370114000        36.4220166000
       29.6011812000        13.3287924000        39.0345795000
       23.2752929000        16.1980125000        37.6491267000
       25.3349482000        14.7752224000        37.0582278000
       27.3606761000        14.6032141000        38.6938994000
       25.9994700000        16.8862165000        38.5119743000
       23.4694106000        14.4717876000        19.9284941000
       29.9706338000        10.8356479000        20.3011014000
       26.0353671000        13.9214795000        19.9469611000
       28.0620225000        12.3615744000        19.4476060000
       22.1100163000         7.3751095900        40.4740867000
       28.2319621000         9.3563152700        39.5328677000
       26.4983169000         8.4098669800        41.2527386000
       30.6992627000         9.1491416600        40.2957190000
       24.1467739000        11.3891667000         3.1558641400
       24.9347875000        13.8129746000         3.0220197600
       24.9384615000        12.3008502000         0.9102531550
       26.8469693000        11.9501667000         2.7294799400
       27.9337497000        14.2408763000         2.5379189000
       28.3573668000        12.2929180000         0.6347833840
       29.6664660000        12.4789027000         2.9062878600
       31.7261630000        14.1695646000         2.0811034600
       31.9799295000        11.5231102000         2.3686598600
       24.0984211000         9.1519944600        40.5385831000
       22.3067038000        16.7758557000         1.9242906000
       21.6630268000        14.4021513000         1.0164675300
       27.0962972000        15.5951981000         0.5531814450
       26.8904208000        16.5401773000         3.1143700900
       29.2467607000        16.3805384000         1.8632444500
       23.3940328000        19.0054633000         1.2780379200
       24.6422732000        20.8085705000         2.6916354600
       25.0250538000        18.3467916000         3.2955239500
       27.4991472000        21.1067249000         1.8533531200
       25.9154190000        19.2361348000         0.9529968280
       28.4235360000        18.7633693000         1.4311012500
       30.8795173000        18.2269358000         0.7533637880
       30.2738803000        18.3190245000         3.2845954900
       30.3284403000        20.9416122000         3.1628337700
       22.4031804000        14.6808831000         3.5085830600
       22.1012752000         8.4111483900         0.1419578340
       29.5692752000         5.8929727100        41.7805644000
       28.1695382000         4.1117672400        40.3825176000
       23.0700667000        10.2752548000        33.3072626000
       25.7310506000         7.6334133200        33.8273489000
       30.6546836000         8.2746711300        33.6693445000
       24.3348783000         3.2760593300        37.8663115000
       24.6568551000         0.8501875990        38.8588712000
       22.0194101000         0.7808321670        39.1194635000
       23.1973431000        42.4733443000        36.9840404000
       26.6860502000         2.5112396100        38.8488495000
       26.1260759000         0.2882268060        36.2986615000
       29.1648981000         3.1090288800        38.1703129000
       23.0552624000         5.4748476400        36.9681754000
       25.2334694000         5.6757551900        38.3709602000
       31.3735094000         4.2641637000        37.0690942000
       29.0422570000         5.1069114000        36.5196443000
       30.0182449000         5.3955646300        39.0755959000
       23.7369781000         7.8174104000        38.2882626000
       21.9755764000         9.5889586700        39.1576998000
       25.6307639000         7.1387107600        36.2939970000
       26.2711210000         8.1264878700        38.5979837000
       31.8725429000         7.6742223200        36.1387775000
       21.9537865000         2.9148539600        40.8313447000
       22.6278386000         0.5540551790        41.5773682000
       24.6120110000         2.9289267700        40.4474811000
       28.7003363000         1.5349839300        40.2096641000
       29.5598171000         0.0232478470        42.1677912000
       23.0415472000         4.8402644800        39.5396874000
       23.6085584000         4.5579339800        42.1617197000
       21.4418622000         5.8859568900        42.6158811000
       27.9761213000         6.7243943000        39.9403928000
       23.8911674000        13.6977126000         5.4266868800
       21.7008303000        25.2918000000         0.1304445110
       21.9614422000        12.0000779000         6.0562203300
       32.0308117000        12.0181202000         6.6455740300
       25.2752243000        16.5470370000        13.2977857000
       28.4862071000        16.8141046000        12.3759854000
       30.3846970000        15.4377737000        13.6380168000
       23.9330384000        20.2984924000        13.5336334000
       21.5075044000        19.4821449000        13.0780114000
       28.2529558000        20.7733613000        11.2557714000
       25.9478247000        21.2055584000        12.2915199000
       30.8919464000        20.7711158000        10.8543116000
       21.9595992000        12.4035801000        17.5565078000
       25.5290026000        12.2019629000        16.0506351000
       27.2707910000        13.9650254000        16.6068742000
       29.5619949000        13.4964758000        15.2368610000
       24.8664112000        14.3025439000        17.6057093000
       22.9538371000        15.5188606000        14.0809991000
       24.4325756000        16.9341095000        15.7681613000
       25.1961629000        14.5596828000        15.0179501000
       28.0225831000        15.5759369000        14.6962024000
       32.1029085000        15.0883079000        16.9962834000
       29.4112421000        15.4144813000        16.9489878000
       30.9983681000        17.4791724000        16.7787616000
       29.4521800000        17.7642596000        14.6276450000
       22.6908634000        18.8464187000        15.3628165000
       22.0272175000        21.3175675000        14.9378904000
       24.4742654000        21.0270262000        16.8886152000
       23.9428969000        18.6313409000        17.7100830000
       29.3667228000        20.6995379000        17.4630034000
       30.8594603000        19.8275978000        15.5029085000
       24.2533140000        12.1932808000        18.9506032000
       22.0867163000        16.8951669000        16.9640948000
       24.8572842000        14.7445136000        11.4366157000
       21.8853223000        15.3495822000        11.6580242000
       23.7306043000        17.1677204000        11.2952611000
       22.9599801000        16.6360393000         6.7243692500
       24.5295685000        15.9946480000         4.2675176500
       26.1371955000        17.5156622000         5.5372965600
       22.4157746000        18.8766102000         5.2803995900
       26.8479796000        19.7167014000         6.6811280500
       31.5539552000        19.6177629000         5.1401031600
       28.8270489000        19.7265266000         4.9194780100
       24.1451866000        12.2382502000         7.5837410600
       22.3024812000        14.1550992000         7.4678320000
       24.7006181000        12.5532889000        10.1809333000
       26.6497223000        14.2131729000         9.3062353200
       28.9962968000        12.7232006000         9.5314018400
       30.9438889000        11.1328967000         8.7714169000
       22.5508135000        16.0691726000         9.2464985600
       28.3528519000        17.7038913000         9.8331937500
       26.2761091000        17.6890772000         8.2306325700
       26.2306773000        16.7692904000        10.7631174000
       28.9578595000        15.1388849000        10.4129501000
       30.5883299000        17.1332119000        10.9082684000
       21.5723136000        18.5907667000         7.6894159500
       24.3296476000        18.8776170000         7.0243420000
       26.2761148000        19.3059848000        10.3816128000
       31.4159097000        21.0405223000         8.2801115600
       29.0769099000        21.0497793000         7.0669577700
       21.8008899000        12.1059332000        12.8982582000
       23.8320937000        11.2195218000        14.3014732000
       27.1324153000        13.2879182000        11.4225211000
       30.1388955000        10.9812105000        11.1833564000
       30.5301664000        12.9145126000        12.8785162000
       31.7741412000        13.2097920000         4.4090354200
       25.3038701000        26.8452160000         2.9237322800
       27.8836179000        26.4638748000         2.5651550300
       30.1294190000        26.4084084000         1.0012023300
       26.7161848000        26.4276928000        35.1291360000
       28.9699688000        27.7417784000        34.5390576000
       31.1458360000        28.1079942000        33.0888475000
       21.6365558000        29.3842511000        32.4204292000
       24.0427809000        29.4254307000        33.2626486000
       22.2393159000        30.1583935000        35.1312014000
       23.6795388000        31.9278602000        33.8531587000
       27.4017222000        31.8805040000        33.3108992000
       27.0148967000        29.1000253000        35.4644884000
       32.0250102000        31.4820923000        34.2522167000
       30.9465139000        29.3942977000        35.3591909000
       29.4365215000        30.1451245000        33.4168435000
       22.7967618000        24.5092716000        38.0985440000
       30.8976652000        21.7491119000        34.3373874000
       27.0455794000        22.6279419000        38.7669195000
       28.3020649000        24.8364327000        37.2110265000
       29.3880220000        23.2587350000        39.3492976000
       23.8127343000        26.8726770000        38.3825865000
       22.5649793000        26.3770685000        36.2044614000
       24.8955191000        25.2367445000        36.6124413000
       28.2565922000        27.4161217000        37.0777408000
       30.5428684000        26.1905856000        36.8481084000
       29.2281617000        26.0010833000        39.2125802000
       22.5857979000        30.3483156000        37.7789234000
       24.7157572000        30.2367387000        35.6924783000
       26.4538607000        30.2161947000        37.7373712000
       26.7525286000        31.8089910000        35.7759952000
       31.7150284000        29.7316092000        38.8932588000
       28.4911387000        22.1487840000        36.9296707000
       30.6926494000        23.8596686000        32.8700019000
       29.5048748000        23.8431591000        35.1963546000
       28.5137057000        22.3766077000        33.3490084000
       30.5730301000        27.1716004000        26.9995540000
       24.7907727000        31.0352634000        28.8241478000
       25.3413018000        28.7782413000        27.6520595000
       27.2261338000        30.9642045000        25.5803206000
       27.3610031000        30.1915757000        28.6009218000
       30.3718112000        29.4788173000        25.8484552000
       29.9038153000        29.3145675000        28.3987574000
       22.9801587000        22.7000677000        28.8838069000
       25.9994447000        24.1921323000        31.7309060000
       28.7727772000        23.2520920000        30.0340972000
       30.2008463000        21.3989003000        31.1705261000
       24.4858198000        25.7618022000        30.3379821000
       22.3889689000        26.5569062000        29.0465586000
       23.3974242000        27.9932084000        31.0864259000
       22.0256592000        25.8020427000        31.5024199000
       26.9939406000        25.1455162000        29.5259357000
       26.5707319000        26.8395417000        31.5487147000
       28.2324653000        28.1733292000        30.0483685000
       29.5031141000        25.5732310000        28.8884720000
       32.0308695000        26.4229299000        28.9234309000
       23.4121843000        30.6854178000        31.0207995000
       22.2729819000        30.1579840000        28.7336408000
       25.7292472000        28.9719454000        30.2242261000
       27.3250537000        29.4371643000        32.1817352000
       28.8258056000        31.5240442000        31.2468838000
       23.6073298000        23.1259184000        32.4885405000
       26.8478419000        23.7461657000        35.5108444000
       25.0112594000        24.5716984000        34.0721340000
       25.9156661000        22.0487653000        33.1931253000
       21.8509803000        22.4334721000        39.3988319000
       26.3374393000        28.5164062000        25.2541477000
       24.4879479000        22.9593053000        39.3123380000
       26.3545652000        23.5782547000        41.1035113000
       31.4756317000        41.9084343000         1.0059823700
       31.7456027000        41.8065384000         3.6269808600
       21.5587096000        32.5975021000         4.6525832700
       27.8846211000        34.8800185000         5.9435714600
       25.4047931000        35.1132974000         6.5385049700
       28.6662369000        33.0992173000         4.2016628200
       29.4533435000        35.5663448000         4.0041919800
       30.9882750000        32.0047605000         5.1359435900
       32.1007392000        35.6087879000         4.3480160500
       22.9888665000        35.5907372000         5.7428874600
       21.9857938000        37.2591680000         4.0772516900
       21.3498280000        39.0019468000         6.0140010600
       25.2610036000        39.0675607000         4.7582554800
       31.4403136000        39.6206492000         2.1539639900
       27.8216215000        38.7418131000         5.1962687000
       21.7345233000        41.5666530000         6.8864224700
       26.2345097000        39.5461923000         7.1229597000
       29.3287999000        42.4014769000         6.3580042500
       28.8935332000        39.9799382000         7.2675590700
       22.8994486000        33.6284083000         9.9985722100
       23.1070066000        32.9018224000         7.6008425900
       23.4412535000        35.4925028000         8.2524970300
       27.1932436000        35.2818470000         8.4843314000
       26.6372025000        32.9484520000         7.2994009700
       28.9189004000        33.0242046000         8.3526369600
       31.2093950000        33.9825304000         8.9149560400
       29.8285217000        32.5260198000        10.7133901000
       23.6040454000        38.4941078000        10.1158377000
       23.7162600000        40.0170935000         6.6512510900
       29.3996820000        41.2508616000         2.4968763400
       27.1902747000        42.0681543000         1.2250127600
       27.0493411000        40.3246486000         3.2121991300
       28.8232733000        24.6799205000        41.4531853000
       32.0896004000        22.3746729000        42.6620004000
       23.3986078000        28.4656676000        40.4779479000
       22.0728598000        27.8684725000        42.6755849000
       24.8205750000        26.2308823000        40.7198664000
       25.6704317000        28.3337487000        39.3327246000
       26.6977266000        25.6681012000        42.5306406000
       31.1886031000        24.8344765000        40.4468827000
       31.7101262000        27.1823500000        39.3917309000
       31.9034642000        26.9813695000        41.9181042000
       24.5901889000        30.8206642000        39.4674802000
       22.2412224000        32.0528454000        39.6860801000
       26.9940723000        30.2103025000        40.3358162000
       28.0828786000        31.8275749000        42.0306977000
       29.5357970000        30.7036612000        40.1087397000
       31.9411752000        31.0900366000        41.1361173000
       22.2779091000        34.7537103000         3.3297509200
       21.2112667000        32.7438668000         2.0078394700
       26.8969584000        35.0802237000         3.4625782000
       31.1358745000        34.5371421000         2.2194522800
       29.1442130000        33.1200596000         1.2593476400
       29.8889669000        35.4165408000         0.1036519430
       24.4570743000        36.2259037000         3.6861734800
       25.4718301000        36.0329875000         1.3410820600
       26.6216304000        37.6736031000         3.0599213700
       30.8779253000        37.1641533000         2.6338224900
       30.7760821000        37.9492425000         0.1549080100
       22.8187916000        41.7147194000         0.7844516580
       21.7351256000        39.4780824000         1.4144424300
       22.7691958000        24.2876251000        40.7883986000
       24.7724569000         8.9508547600        31.8015257000
       27.8318079000        27.9363752000        27.4087137000
       23.2364522000        27.0507473000        26.6042719000
       22.7081662000        28.6080875000         9.9255456500
       26.2537970000        26.4750237000        10.1232728000
       26.2541570000        26.4852420000         7.5231490300
       27.7874372000        28.1628652000         8.7452249900
       25.2014893000        28.5230724000         8.9619768900
       23.8991592000        30.6927384000         8.8171632400
       21.3654851000        30.9550689000         8.3347378000
       27.5883320000        30.7517472000         8.5608923700
       30.6053029000        29.1218535000         7.3603267900
       31.0448577000        31.4787525000         8.5349207600
       29.7177373000        29.6130163000         9.7630613100
       23.8777010000        22.8440486000        12.6805297000
       25.6137949000        24.4870903000        11.6862543000
       22.9810290000        26.8494165000         8.1053302900
       29.6457004000        22.9917336000        11.7541206000
       24.3261447000        25.2198018000        13.8102085000
       25.0130064000        27.6532903000        13.0111390000
       28.3033648000        27.9140000000        12.4005041000
       30.8830855000        27.6234907000        12.7692417000
       29.3473456000        25.5352460000        12.3393419000
       24.4294194000        29.6968483000        11.3031534000
       24.0119773000        29.8789853000        13.9467640000
       26.3372732000        29.9941153000        12.9710875000
       27.3875292000        29.6220381000        10.9285509000
       31.4522664000        31.4985454000        12.4289880000
       29.0485085000        30.6018858000        12.4636105000
       25.1263767000        23.5568916000        16.9127996000
       25.3880790000        22.1709889000        14.6905340000
       22.9814481000        25.0974721000        11.5932304000
       30.4780150000        23.2952703000         7.3071889600
       30.5180760000        24.7963407000        10.0313388000
       29.2803156000        22.1795351000         9.3361122200
       29.5133773000        28.5086327000         2.4063573800
       24.1120057000        28.9988127000         2.1176296900
       22.7806070000        30.9645738000         0.9805671610
       21.4732993000        29.2287464000         2.4339595400
       28.0156415000        30.6631433000         1.6827560400
       30.2840885000        30.9127107000         0.4309314960
       24.7674932000        22.4693578000         4.7982783100
       27.2968902000        21.9094831000         5.2971026500
       26.2916435000        24.3794149000         5.8464487900
       30.6367092000        22.9518058000         4.7638225800
       21.6660375000        26.0750558000         6.0629631600
       24.3112269000        26.1833120000         5.8470990700
       26.7844482000        26.7833441000         5.0002378000
       30.2538242000        26.1391233000         3.5328704900
       31.3477074000        27.8094596000         5.1360475200
       31.1506656000        25.3075080000         5.8265557600
       23.1435169000        30.8417936000         3.6363338800
       22.9613236000        30.8146713000         6.2420547300
       27.1215249000        28.8305944000         3.3739545300
       28.6255451000        31.4870468000         6.2778130600
       29.1762652000        30.5119279000         3.9856442500
       23.7261588000        22.3509822000         8.9367112100
       21.7644249000        23.9398830000         9.6358718500
       23.2968644000        24.4058570000         7.4095267700
       21.4218233000        22.7039251000         7.4465117900
       25.6566957000        24.1726769000         9.0852315900
       26.2282773000        21.7673318000         9.7676589600
       27.9270546000        24.4613883000        10.4107529000
       25.6859454000        22.2605635000         7.2577064200
       28.3644108000        24.3487673000        15.3878451000
       25.8198223000        26.3870089000        26.6982894000
       27.0174428000        21.6604965000        16.6230523000
       28.7870366000        23.2264783000        17.7571583000
       29.2936162000        29.0924907000        19.2500394000
       22.2764164000        22.5133412000        23.7609005000
       24.0779844000        24.2031845000        22.6478508000
       21.5906883000        24.1068461000        21.9015107000
       25.2726846000        22.8499999000        24.4797095000
       28.5820193000        24.3796634000        22.4994866000
       30.3116077000        22.4637089000        23.1413465000
       24.1733986000        25.2010538000        25.0102869000
       26.3593625000        25.1879640000        23.5686066000
       28.6232078000        26.6374761000        23.7921545000
       28.8432407000        28.0961089000        21.6122650000
       30.7515550000        28.3042806000        23.5166893000
       22.0126869000        31.0756546000        21.8268998000
       29.0830472000        31.6281437000        18.5755226000
       23.6116908000        30.1193906000        23.6859368000
       21.1166149000        30.8112484000        24.3243908000
       26.1959203000        30.2418399000        23.2465328000